24
Caffeine (C8H10N4O2) - CNS stimulant
N   -1.944   0.505   0.000
C   -0.548   0.627   0.000
N    0.000  -0.655   0.000
C   -1.025  -1.583   0.000
C   -2.261  -0.849   0.000
C    1.391  -0.893   0.000
O    1.905  -1.996   0.000
N    2.054   0.316   0.000
C    1.428   1.536   0.000
O    2.046   2.589   0.000
C    0.038   1.688   0.000
C   -2.827   1.666   0.000
H   -2.645   2.302   0.866
H   -2.645   2.302  -0.866
H   -3.864   1.334   0.000
C   -3.693  -1.319   0.000
H   -4.225  -0.963   0.884
H   -4.225  -0.963  -0.884
H   -3.708  -2.408   0.000
C    3.518   0.246   0.000
H    3.906   1.264   0.000
H    3.878  -0.278   0.887
H    3.878  -0.278  -0.887
H   -0.916  -2.659   0.000
